50
15678

444 492
246 780
91 77
585 322
978 94
37 571
244 826
905 696
748 742
231 51
767 395
906 856
434 666
847 335
225 658
614 202
247 649
487 372
417 594
191 824
703 18
146 44
534 138
467 596
35 622
792 877
884 561
870 448
999 570
686 507
396 728
155 142
431 425
89 802
971 230
152 708
45 259
891 511
388 986
987 667
375 558
719 262
988 360
93 515
226 947
217 793
220 595
551 311
850 960
134 424
